NAME : att48.20121.tour
COMMENT : Cost = 4324_20121
COMMENT : Found by LKH [Keld Helsgaun] Thu Nov 16 17:25:38 2017
TYPE : TOUR
DIMENSION : 52
TOUR_SECTION
1
8
38
31
44
18
7
28
6
37
19
27
17
43
30
36
46
33
20
12
15
9
52
45
50
40
11
47
21
32
24
39
25
13
23
51
16
41
2
4
26
29
34
22
49
3
5
42
35
10
48
14
-1
EOF
